2000 50
72 85 63 91 54 78 66 88 47 95 58 74 81 69 52 99 43 77 61 84 56 92 48 71 87 64 53 96 45 79 68 83 57 94 49 76 62 89 55 97 44 73 86 59 93 51 75 67 82 46
45 65 35 80 30 55 40 70 25 90 32 50 60 42 28 95 22 58 38 68 34 85 26 48 72 39 29 92 24 56 43 67 31 87 27 53 41 74 33 98 21 46 69 36 83 30 52 44 64 23